100
128
24
2
2
23
3
21
11
29
13
30
27
30
30
11
15
56
1
60
40
30
28
34
64
52
60
24
25
15
20
24
25
8
56
60
51
64
64
11
45
40
22
37
43
46
34
57
37
64
64
51
51
64
62
47
49
43
63
30
31
48
48
26
22
29
51
63
31
26
34
29
29
31
38
1
20
55
37
51
29
48
36
21
31
22
41
34
3
20
23
32
52
31
1
35
61
26
52
63
63
50